scheduleLength  = 7;
numberEmployees = 9;
numberShifts    = 3;
minDaysOff      = 2;
maxDaysOff      = 4;
minDaysWork     = 4;
maxDaysWork     = 7;
shiftNames      = ["D", "A", "N"];
minDaysShift    = [4, 4, 4];
maxDaysShift    = [7, 7, 7];

requirements = [| 2, 2, 2, 2, 2, 2, 2,
                | 2, 2, 2, 2, 2, 2, 2,
                | 2, 2, 2, 2, 2, 2, 2 |];

numberForbiddenShifts2 = 3;
forbiddenShifts2 = [| 3, 1,
                    | 3, 2,
                    | 2, 1 |];

numberForbiddenShifts3 = 0;
forbiddenShifts3 = array2d({},1..2,[]);

